webassembly/ejemplos_dzn/folder5_json_35.dzn
TERM = { '.', 's(2)', 'in_1', 'in_6', 'in_2', 'in_4', 'in_3', 's(1)', 's(0)', 'in_5', 'in_0'};
null = '.';
s = 5;
n = 12;
ndeps = 4;
max_registers_sz = 3;
NR = 0;
registers = [| |];
dependencies = [|'i32.store8_0', 'i32.load8_u_1', |'i32.load8_u_1', 'i32.store_2', |'i32.store_2', 'call[function_index(0)]_3', |'call[function_index(0)]_3', 'i32.load16_u_4'|];
GET_ENUM = { GET1, GET2, GET3};
SET_ENUM = { SET1, SET2, SET3};
TEE_ENUM = { TEE1, TEE2, TEE3};
N = 5;
OP = { 'call[function_index(0)]_3', 'i32.store8_0', 'i32.load8_u_1', 'i32.store_2', 'i32.load16_u_4' };
in_ops = [3, 2, 1, 2, 1 ];
out_ops = [1, 0, 1, 0, 1 ];
in1 = ['in_4', 'in_0', 'in_2', 's(0)', 's(1)' ];
in2 = ['in_5', 'in_1', '.', 'in_3', '.' ];
in3 = ['in_6', '.', '.', '.', '.' ];
out1 = ['s(1)', '.', 's(0)', '.', 's(2)' ];
out2 = ['.', '.', '.', '.', '.' ];
out3 = ['.', '.', '.', '.', '.' ];
comm = [false, false, false, false, false ];
gas = [1, 1, 1, 1, 1 ];
sz = [1, 1, 1, 1, 1 ];
stor = [true, true, false, true, false ];
lb = [ 1, 1, 1, 1, 1 ];
ub = [ 5, 5, 5, 5, 5 ];
startstack = [ 'in_0', 'in_1', 'in_2', 'in_3', 'in_4', 'in_5', 'in_6', null, null, null, null, null ];
endstack = [ 's(2)', null, null, null, null, null, null, null, null, null, null, null ];
