webassembly/ejemplos_results/5/folder5_json_35.txt
value = 5;
fgas = [1, 1, 1, 1, 1];
fsize = [1, 1, 1, 1, 1];
states = 
[|   in_0, in_1, in_2, in_3, in_4, in_5, in_6, '.', '.', '.', '.', '.'
 |   in_2, in_3, in_4, in_5, in_6,  '.',  '.', '.', '.', '.', '.', '.'
 | 's(0)', in_3, in_4, in_5, in_6,  '.',  '.', '.', '.', '.', '.', '.'
 |   in_4, in_5, in_6,  '.',  '.',  '.',  '.', '.', '.', '.', '.', '.'
 | 's(1)',  '.',  '.',  '.',  '.',  '.',  '.', '.', '.', '.', '.', '.'
 | 's(2)',  '.',  '.',  '.',  '.',  '.',  '.', '.', '.', '.', '.', '.'
 |];
register_states = 
[| '.', '.', '.'
 | '.', '.', '.'
 | '.', '.', '.'
 | '.', '.', '.'
 | '.', '.', '.'
 | '.', '.', '.'
 |];
program = [O('i32.store8_0'), O('i32.load8_u_1'), O('i32.store_2'), O('call[function_index(0)]_3'), O('i32.load16_u_4')];
% time elapsed: 0.08 s
----------
==========
% time elapsed: 0.08 s
% [value > 4]
